c preprocessed version of 1r69_graph, 63 vertices, 692 edges
p td 63 692
61 62
60 62
60 61
59 62
59 61
59 60
58 61
58 60
58 59
57 62
57 61
57 60
57 59
57 58
56 62
56 61
56 60
56 59
56 58
56 57
55 60
55 59
55 58
55 57
55 56
54 62
54 60
54 58
54 57
54 56
54 55
53 61
53 59
53 58
53 57
53 55
53 54
52 58
52 57
52 54
52 53
51 58
51 57
51 55
51 54
51 53
51 52
50 58
50 53
50 52
50 51
49 55
49 54
49 53
49 52
49 51
49 50
48 59
48 58
48 57
48 56
48 55
48 54
48 53
48 52
48 51
48 50
48 49
47 59
47 58
47 57
47 55
47 53
47 51
47 50
47 49
47 48
46 50
46 49
46 48
46 47
45 59
45 58
45 56
45 55
45 54
45 49
45 48
45 47
45 46
44 60
44 59
44 58
44 56
44 55
44 54
44 53
44 51
44 49
44 48
44 47
44 46
44 45
43 58
43 55
43 51
43 50
43 48
43 47
43 46
43 45
43 44
42 47
42 46
42 45
42 44
42 43
41 59
41 58
41 55
41 51
41 50
41 48
41 47
41 46
41 44
41 43
41 42
40 60
40 59
40 58
40 55
40 48
40 47
40 44
40 42
40 41
39 61
39 60
39 59
39 58
39 55
39 47
39 44
39 41
39 40
38 58
38 47
38 44
38 43
38 42
38 41
38 40
38 39
37 41
37 39
37 38
36 61
36 39
36 38
36 37
35 41
35 38
35 37
35 36
34 58
34 51
34 50
34 47
34 43
34 41
34 37
34 36
34 35
33 59
33 58
33 55
33 53
33 51
33 50
33 48
33 47
33 46
33 44
33 43
33 42
33 41
33 40
33 39
33 38
33 37
33 36
33 35
33 34
32 47
32 41
32 38
32 37
32 36
32 35
32 34
32 33
31 38
31 37
31 35
31 34
31 33
31 32
30 58
30 51
30 50
30 47
30 46
30 43
30 41
30 38
30 35
30 34
30 33
30 32
30 31
29 58
29 51
29 50
29 47
29 46
29 44
29 43
29 42
29 41
29 40
29 38
29 37
29 34
29 33
29 32
29 31
29 30
28 41
28 38
28 37
28 35
28 33
28 32
28 31
28 30
28 29
27 35
27 34
27 31
27 30
27 29
27 28
26 43
26 42
26 41
26 38
26 33
26 32
26 31
26 30
26 29
26 28
26 27
25 58
25 51
25 50
25 47
25 46
25 45
25 44
25 43
25 42
25 41
25 38
25 34
25 33
25 32
25 30
25 29
25 28
25 27
25 26
24 50
24 47
24 46
24 43
24 42
24 30
24 29
24 26
24 25
23 58
23 53
23 51
23 50
23 49
23 48
23 47
23 46
23 45
23 44
23 43
23 42
23 41
23 38
23 34
23 33
23 32
23 30
23 29
23 28
23 27
23 26
23 25
23 24
22 52
22 51
22 50
22 49
22 47
22 46
22 43
22 30
22 25
22 24
22 23
21 50
21 30
21 27
21 26
21 25
21 24
21 23
21 22
20 50
20 47
20 43
20 41
20 34
20 33
20 31
20 30
20 29
20 28
20 27
20 26
20 25
20 24
20 23
20 22
20 21
19 58
19 53
19 52
19 51
19 50
19 49
19 48
19 47
19 46
19 43
19 41
19 34
19 33
19 31
19 30
19 29
19 27
19 25
19 23
19 22
19 21
19 20
18 52
18 51
18 50
18 34
18 30
18 27
18 23
18 22
18 21
18 20
18 19
17 34
17 31
17 30
17 28
17 27
17 26
17 22
17 21
17 20
17 19
17 18
16 51
16 50
16 47
16 43
16 41
16 35
16 34
16 33
16 32
16 31
16 30
16 29
16 28
16 27
16 26
16 25
16 23
16 21
16 20
16 19
16 18
16 17
15 34
15 31
15 30
15 27
15 22
15 21
15 20
15 19
15 18
15 17
15 16
14 52
14 51
14 50
14 47
14 34
14 30
14 23
14 22
14 21
14 19
14 18
14 17
14 16
14 15
13 22
13 19
13 18
13 15
13 14
12 57
12 53
12 52
12 51
12 50
12 49
12 47
12 23
12 22
12 19
12 18
12 14
12 13
11 57
11 53
11 52
11 51
11 19
11 14
11 13
11 12
10 34
10 30
10 19
10 16
10 15
10 14
10 13
10 12
10 11
9 58
9 53
9 52
9 51
9 50
9 47
9 43
9 41
9 34
9 33
9 31
9 30
9 29
9 25
9 23
9 22
9 20
9 19
9 18
9 17
9 16
9 15
9 14
9 13
9 12
9 11
9 10
8 61
8 58
8 57
8 54
8 53
8 52
8 51
8 50
8 48
8 47
8 44
8 41
8 34
8 33
8 30
8 23
8 22
8 19
8 14
8 12
8 11
8 10
8 9
7 61
7 58
7 57
7 53
7 51
7 34
7 12
7 11
7 10
7 9
7 8
6 58
6 51
6 47
6 36
6 35
6 34
6 33
6 31
6 30
6 19
6 16
6 15
6 11
6 10
6 9
6 8
6 7
5 59
5 58
5 57
5 55
5 53
5 51
5 50
5 48
5 47
5 44
5 43
5 41
5 39
5 38
5 36
5 35
5 34
5 33
5 32
5 31
5 30
5 29
5 25
5 23
5 22
5 20
5 19
5 16
5 14
5 12
5 10
5 9
5 8
5 7
5 6
4 62
4 61
4 60
4 59
4 58
4 57
4 55
4 54
4 53
4 51
4 48
4 47
4 44
4 33
4 19
4 11
4 9
4 8
4 7
4 6
4 5
3 61
3 39
3 36
3 35
3 34
3 11
3 10
3 8
3 7
3 6
3 5
3 4
2 58
2 47
2 41
2 39
2 38
2 37
2 36
2 35
2 34
2 33
2 32
2 31
2 30
2 16
2 7
2 6
2 5
2 4
2 3
1 61
1 60
1 59
1 58
1 57
1 55
1 53
1 51
1 50
1 48
1 47
1 44
1 43
1 41
1 40
1 39
1 38
1 37
1 36
1 34
1 33
1 30
1 29
1 25
1 23
1 19
1 16
1 9
1 8
1 6
1 5
1 4
1 3
1 2
0 61
0 60
0 59
0 58
0 39
0 36
0 35
0 34
0 33
0 7
0 5
0 4
0 3
0 2
0 1
